problem_generation/data/GISP/train/er_n=63_m=1152_p=0.60_SET2_setparam=100.00_alpha=0.50_403.lp
maximize
OBJ:100x0 + 100x1 + 100x2 + 100x3 + 100x4 + 100x5 + 100x6 + 100x7 + 100x8 + 100x9 + 100x10 + 100x11 + 100x12 + 100x13 + 100x14 + 100x15 + 100x16 + 100x17 + 100x18 + 100x19 + 100x20 + 100x21 + 100x22 + 100x23 + 100x24 + 100x25 + 100x26 + 100x27 + 100x28 + 100x29 + 100x30 + 100x31 + 100x32 + 100x33 + 100x34 + 100x35 + 100x36 + 100x37 + 100x38 + 100x39 + 100x40 + 100x41 + 100x42 + 100x43 + 100x44 + 100x45 + 100x46 + 100x47 + 100x48 + 100x49 + 100x50 + 100x51 + 100x52 + 100x53 + 100x54 + 100x55 + 100x56 + 100x57 + 100x58 + 100x59 + 100x60 + 100x61 + 100x62 - y15_21 - y7_17 - y36_53 - y18_26 - y15_39 - y28_58 - y29_41 - y40_41 - y40_50 - y0_23 - y29_59 - y40_59 - y21_55 - y41_42 - y41_51 - y10_45 - y44_47 - y44_56 - y2_50 - y3_15 - y14_15 - y25_52 - y3_24 - y7_12 - y47_48 - y15_25 - y18_21 - y18_30 - y28_62 - y29_36 - y21_32 - y29_45 - y48_58 - y21_41 - y2_27 - y10_40 - y10_49 - y44_51 - y2_45 - y10_58 - y22_23 - y2_54 - y14_28 - y24_60 - y3_37 - y28_39 - y7_16 - y36_61 - y17_57 - y28_57 - y9_62 - y48_53 - y29_49 - y40_49 - y21_45 - y6_56 - y21_54 - y2_13 - y39_62 - y2_22 - y33_37 - y10_44 - y3_14 - y24_46 - y3_23 - y32_59 - y43_59 - y1_53 - y13_55 - y14_32 - y24_55 - y17_25 - y17_34 - y36_47 - y28_43 - y28_52 - y5_59 - y50_58 - y29_44 - y40_44 - y21_49 - y10_12 - y10_21 - y2_17 - y10_30 - y12_58 - y23_58 - y32_36 - y13_32 - y24_32 - y24_41 - y32_54 - y1_48 - y16_46 - y13_59 - y16_55 - y5_27 - y36_42 - y28_38 - y36_51 - y5_45 - y17_47 - y28_47 - y5_54 - y9_52 - y6_28 - y6_37 - y39_43 - y2_3 - y39_52 - y2_21 - y24_27 - y3_4 - y13_36 - y24_36 - y32_49 - y16_32 - y43_49 - y1_43 - y35_45 - y32_58 - y16_41 - y1_61 - y9_20 - y28_33 - y17_42 - y9_38 - y6_23 - y6_32 - y8_60 - y42_62 - y10_11 - y20_43 - y39_56 - y23_39 - y12_48 - y31_61 - y4_44 - y13_22 - y1_29 - y13_31 - y4_62 - y16_36 - y1_47 - y24_49 - y5_8 - y5_17 - y17_19 - y9_15 - y38_51 - y38_60 - y49_60 - y5_35 - y6_9 - y27_41 - y8_46 - y8_55 - y30_55 - y0_51 - y11_51 - y20_29 - y31_38 - y31_47 - y23_43 - y20_56 - y4_39 - y12_52 - y1_15 - y13_17 - y4_48 - y12_61 - y1_24 - y13_26 - y4_57 - y16_22 - y23_61 - y1_51 - y9_10 - y38_46 - y26_53 - y5_30 - y26_62 - y5_39 - y7_58 - y18_58 - y6_13 - y27_45 - y19_41 - y0_37 - y19_50 - y30_50 - y0_46 - y11_46 - y19_59 - y12_29 - y4_25 - y20_51 - y31_51 - y12_47 - y23_47 - y16_17 - y34_53 - y22_60 - y45_62 - y38_41 - y9_14 - y15_48 - y15_57 - y38_59 - y18_53 - y7_62 - y18_62 - y19_27 - y27_40 - y8_36 - y50_51 - y8_45 - y19_45 - y0_41 - y8_54 - y41_60 - y23_42 - y1_5 - y16_30 - y14_60 - y5_11 - y46_49 - y57_58 - y26_61 - y19_22 - y19_31 - y30_31 - y27_44 - y8_40 - y30_40 - y11_36 - y8_49 - y19_49 - y41_55 - y33_51 - y23_28 - y4_24 - y12_37 - y25_56 - y1_9 - y22_41 - y53_56 - y22_50 - y3_46 - y22_59 - y7_25 - y18_25 - y15_47 - y38_49 - y18_52 - y27_30 - y0_13 - y7_61 - y8_26 - y11_13 - y19_26 - y27_39 - y11_31 - y41_50 - y33_46 - y41_59 - y52_59 - y4_19 - y33_55 - y34_38 - y1_13 - y34_56 - y3_59 - y15_24 - y26_33 - y18_29 - y26_42 - y15_51 - y26_51 - y18_47 - y7_56 - y8_21 - y48_57 - y11_17 - y40_53 - y40_62 - y0_35 - y11_35 - y44_50 - y2_44 - y33_59 - y2_53 - y25_55 - y22_31 - y3_36 - y3_45 - y14_45 - y15_28 - y15_37 - y48_52 - y29_48 - y40_48 - y19_25 - y40_57 - y21_53 - y10_34 - y25_32 - y44_45 - y52_58 - y2_39 - y10_52 - y2_48 - y3_13 - y10_61 - y25_50 - y25_59 - y3_22 - y14_22 - y22_44 - y14_40 - y18_19 - y36_55 - y15_32 - y47_55 - y17_60 - y7_37 - y18_37 - y8_11 - y0_7 - y6_41 - y29_43 - y48_56 - y29_52 - y40_61 - y10_38 - y10_56 - y51_57 - y22_30 - y2_61 - y3_35 - y14_35 - y36_41 - y47_50 - y18_23 - y47_59 - y5_53 - y6_27 - y21_25 - y0_2 - y6_36 - y21_43 - y6_54 - y2_29 - y25_31 - y33_44 - y2_38 - y25_40 - y22_25 - y3_21 - y14_21 - y24_53 - y3_30 - y1_60 - y7_9 - y36_45 - y17_41 - y28_50 - y58_60 - y21_29 - y6_58 - y10_28 - y20_60 - y25_26 - y54_62 - y32_34 - y32_43 - y51_56 - y35_39 - y13_48 - y32_61 - y16_44 - y1_55 - y17_18 - y17_27 - y28_36 - y5_43 - y6_8 - y28_45 - y28_54 - y6_26 - y21_24 - y21_33 - y2_10 - y20_46 - y39_59 - y10_32 - y13_34 - y43_47 - y1_41 - y13_43 - y24_43 - y16_39 - y5_20 - y9_18 - y9_45 - y9_54 - y27_62 - y2_5 - y12_46 - y20_59 - y16_25 - y51_55 - y1_36 - y24_38 - y13_47 - y24_47 - y35_47 - y13_56 - y5_24 - y57_62 - y9_22 - y38_58 - y49_58 - y28_44 - y6_7 - y9_40 - y6_16 - y27_48 - y42_46 - y21_23 - y50_59 - y0_49 - y20_27 - y39_40 - y20_36 - y31_36 - y12_32 - y23_32 - y20_45 - y31_45 - y2_18 - y31_54 - y54_56 - y4_55 - y43_46 - y24_42 - y35_42 - y1_49 - y1_58 - y5_19 - y38_53 - y9_26 - y38_62 - y5_37 - y27_43 - y19_39 - y27_52 - y19_48 - y27_61 - y0_44 - y11_44 - y8_57 - y19_57 - y42_59 - y0_53 - y12_27 - y1_8 - y23_54 - y4_50 - y4_59 - y16_24 - y24_37 - y1_44 - y46_52 - y15_46 - y5_23 - y15_55 - y18_51 - y27_29 - y8_34 - y27_47 - y19_43 - y19_52 - y11_48 - y8_61 - y20_26 - y60_62 - y31_35 - y12_31 - y23_31 - y23_40 - y23_49 - y4_45 - y22_62 - y37_60 - y46_47 - y26_41 - y38_43 - y9_16 - y38_61 - y7_55 - y19_20 - y8_29 - y11_25 - y8_38 - y27_51 - y42_49 - y19_56 - y20_21 - y12_17 - y20_30 - y11_61 - y12_26 - y52_62 - y4_22 - y44_58 - y13_18 - y22_48 - y45_50 - y56_59 - y46_51 - y15_45 - y18_41 - y15_54 - y8_15 - y8_24 - y48_60 - y11_20 - y27_46 - y0_47 - y52_57 - y1_2 - y25_58 - y1_11 - y22_43 - y53_58 - y34_54 - y14_48 - y22_61 - y14_57 - y37_59 - y7_18 - y15_40 - y38_42 - y7_36 - y18_36 - y7_45 - y7_54 - y18_54 - y48_55 - y11_15 - y8_28 - y11_33 - y11_42 - y33_39 - y41_52 - y4_12 - y44_48 - y25_44 - y4_21 - y1_6 - y22_38 - y34_40 - y22_47 - y3_43 - y37_45 - y45_58 - y26_44 - y40_46 - y6_53 - y21_51 - y21_60 - y4_7 - y2_46 - y10_59 - y33_61 - y25_57 - y22_42 - y14_38 - y37_40 - y3_56
 Subject to
C1: x0+x1 <=1 
C2: x0+x2-y0_2 <=1 
C3: x0+x7-y0_7 <=1 
C4: x0+x13-y0_13 <=1 
C5: x0+x19 <=1 
C6: x0+x20 <=1 
C7: x0+x23-y0_23 <=1 
C8: x0+x26 <=1 
C9: x0+x31 <=1 
C10: x0+x35-y0_35 <=1 
C11: x0+x36 <=1 
C12: x0+x37-y0_37 <=1 
C13: x0+x41-y0_41 <=1 
C14: x0+x42 <=1 
C15: x0+x44-y0_44 <=1 
C16: x0+x46-y0_46 <=1 
C17: x0+x47-y0_47 <=1 
C18: x0+x49-y0_49 <=1 
C19: x0+x51-y0_51 <=1 
C20: x0+x53-y0_53 <=1 
C21: x0+x54 <=1 
C22: x0+x55 <=1 
C23: x0+x60 <=1 
C24: x0+x62 <=1 
C25: x1+x2-y1_2 <=1 
C26: x1+x5-y1_5 <=1 
C27: x1+x6-y1_6 <=1 
C28: x1+x7 <=1 
C29: x1+x8-y1_8 <=1 
C30: x1+x9-y1_9 <=1 
C31: x1+x10 <=1 
C32: x1+x11-y1_11 <=1 
C33: x1+x12 <=1 
C34: x1+x13-y1_13 <=1 
C35: x1+x15-y1_15 <=1 
C36: x1+x16 <=1 
C37: x1+x18 <=1 
C38: x1+x19 <=1 
C39: x1+x20 <=1 
C40: x1+x22 <=1 
C41: x1+x24-y1_24 <=1 
C42: x1+x26 <=1 
C43: x1+x28 <=1 
C44: x1+x29-y1_29 <=1 
C45: x1+x32 <=1 
C46: x1+x33 <=1 
C47: x1+x35 <=1 
C48: x1+x36-y1_36 <=1 
C49: x1+x41-y1_41 <=1 
C50: x1+x43-y1_43 <=1 
C51: x1+x44-y1_44 <=1 
C52: x1+x47-y1_47 <=1 
C53: x1+x48-y1_48 <=1 
C54: x1+x49-y1_49 <=1 
C55: x1+x50 <=1 
C56: x1+x51-y1_51 <=1 
C57: x1+x53-y1_53 <=1 
C58: x1+x55-y1_55 <=1 
C59: x1+x58-y1_58 <=1 
C60: x1+x59 <=1 
C61: x1+x60-y1_60 <=1 
C62: x1+x61-y1_61 <=1 
C63: x1+x62 <=1 
C64: x2+x3-y2_3 <=1 
C65: x2+x4 <=1 
C66: x2+x5-y2_5 <=1 
C67: x2+x10-y2_10 <=1 
C68: x2+x13-y2_13 <=1 
C69: x2+x14 <=1 
C70: x2+x17-y2_17 <=1 
C71: x2+x18-y2_18 <=1 
C72: x2+x21-y2_21 <=1 
C73: x2+x22-y2_22 <=1 
C74: x2+x26 <=1 
C75: x2+x27-y2_27 <=1 
C76: x2+x28 <=1 
C77: x2+x29-y2_29 <=1 
C78: x2+x30 <=1 
C79: x2+x32 <=1 
C80: x2+x36 <=1 
C81: x2+x38-y2_38 <=1 
C82: x2+x39-y2_39 <=1 
C83: x2+x43 <=1 
C84: x2+x44-y2_44 <=1 
C85: x2+x45-y2_45 <=1 
C86: x2+x46-y2_46 <=1 
C87: x2+x47 <=1 
C88: x2+x48-y2_48 <=1 
C89: x2+x49 <=1 
C90: x2+x50-y2_50 <=1 
C91: x2+x52 <=1 
C92: x2+x53-y2_53 <=1 
C93: x2+x54-y2_54 <=1 
C94: x2+x55 <=1 
C95: x2+x59 <=1 
C96: x2+x61-y2_61 <=1 
C97: x2+x62 <=1 
C98: x3+x4-y3_4 <=1 
C99: x3+x5 <=1 
C100: x3+x7 <=1 
C101: x3+x8 <=1 
C102: x3+x10 <=1 
C103: x3+x13-y3_13 <=1 
C104: x3+x14-y3_14 <=1 
C105: x3+x15-y3_15 <=1 
C106: x3+x16 <=1 
C107: x3+x19 <=1 
C108: x3+x21-y3_21 <=1 
C109: x3+x22-y3_22 <=1 
C110: x3+x23-y3_23 <=1 
C111: x3+x24-y3_24 <=1 
C112: x3+x27 <=1 
C113: x3+x29 <=1 
C114: x3+x30-y3_30 <=1 
C115: x3+x34 <=1 
C116: x3+x35-y3_35 <=1 
C117: x3+x36-y3_36 <=1 
C118: x3+x37-y3_37 <=1 
C119: x3+x40 <=1 
C120: x3+x42 <=1 
C121: x3+x43-y3_43 <=1 
C122: x3+x45-y3_45 <=1 
C123: x3+x46-y3_46 <=1 
C124: x3+x47 <=1 
C125: x3+x49 <=1 
C126: x3+x53 <=1 
C127: x3+x56-y3_56 <=1 
C128: x3+x59-y3_59 <=1 
C129: x4+x5 <=1 
C130: x4+x7-y4_7 <=1 
C131: x4+x12-y4_12 <=1 
C132: x4+x13 <=1 
C133: x4+x16 <=1 
C134: x4+x17 <=1 
C135: x4+x19-y4_19 <=1 
C136: x4+x21-y4_21 <=1 
C137: x4+x22-y4_22 <=1 
C138: x4+x24-y4_24 <=1 
C139: x4+x25-y4_25 <=1 
C140: x4+x26 <=1 
C141: x4+x27 <=1 
C142: x4+x28 <=1 
C143: x4+x31 <=1 
C144: x4+x33 <=1 
C145: x4+x36 <=1 
C146: x4+x38 <=1 
C147: x4+x39-y4_39 <=1 
C148: x4+x40 <=1 
C149: x4+x43 <=1 
C150: x4+x44-y4_44 <=1 
C151: x4+x45-y4_45 <=1 
C152: x4+x47 <=1 
C153: x4+x48-y4_48 <=1 
C154: x4+x49 <=1 
C155: x4+x50-y4_50 <=1 
C156: x4+x52 <=1 
C157: x4+x53 <=1 
C158: x4+x55-y4_55 <=1 
C159: x4+x56 <=1 
C160: x4+x57-y4_57 <=1 
C161: x4+x59-y4_59 <=1 
C162: x4+x61 <=1 
C163: x4+x62-y4_62 <=1 
C164: x5+x6 <=1 
C165: x5+x8-y5_8 <=1 
C166: x5+x9 <=1 
C167: x5+x10 <=1 
C168: x5+x11-y5_11 <=1 
C169: x5+x14 <=1 
C170: x5+x15 <=1 
C171: x5+x16 <=1 
C172: x5+x17-y5_17 <=1 
C173: x5+x18 <=1 
C174: x5+x19-y5_19 <=1 
C175: x5+x20-y5_20 <=1 
C176: x5+x21 <=1 
C177: x5+x22 <=1 
C178: x5+x23-y5_23 <=1 
C179: x5+x24-y5_24 <=1 
C180: x5+x27-y5_27 <=1 
C181: x5+x28 <=1 
C182: x5+x29 <=1 
C183: x5+x30-y5_30 <=1 
C184: x5+x32 <=1 
C185: x5+x33 <=1 
C186: x5+x34 <=1 
C187: x5+x35-y5_35 <=1 
C188: x5+x36 <=1 
C189: x5+x37-y5_37 <=1 
C190: x5+x39-y5_39 <=1 
C191: x5+x40 <=1 
C192: x5+x42 <=1 
C193: x5+x43-y5_43 <=1 
C194: x5+x44 <=1 
C195: x5+x45-y5_45 <=1 
C196: x5+x46 <=1 
C197: x5+x47 <=1 
C198: x5+x50 <=1 
C199: x5+x53-y5_53 <=1 
C200: x5+x54-y5_54 <=1 
C201: x5+x56 <=1 
C202: x5+x58 <=1 
C203: x5+x59-y5_59 <=1 
C204: x5+x60 <=1 
C205: x6+x7-y6_7 <=1 
C206: x6+x8-y6_8 <=1 
C207: x6+x9-y6_9 <=1 
C208: x6+x13-y6_13 <=1 
C209: x6+x14 <=1 
C210: x6+x16-y6_16 <=1 
C211: x6+x19 <=1 
C212: x6+x20 <=1 
C213: x6+x21 <=1 
C214: x6+x22 <=1 
C215: x6+x23-y6_23 <=1 
C216: x6+x25 <=1 
C217: x6+x26-y6_26 <=1 
C218: x6+x27-y6_27 <=1 
C219: x6+x28-y6_28 <=1 
C220: x6+x29 <=1 
C221: x6+x31 <=1 
C222: x6+x32-y6_32 <=1 
C223: x6+x33 <=1 
C224: x6+x36-y6_36 <=1 
C225: x6+x37-y6_37 <=1 
C226: x6+x40 <=1 
C227: x6+x41-y6_41 <=1 
C228: x6+x42 <=1 
C229: x6+x47 <=1 
C230: x6+x49 <=1 
C231: x6+x51 <=1 
C232: x6+x52 <=1 
C233: x6+x53-y6_53 <=1 
C234: x6+x54-y6_54 <=1 
C235: x6+x56-y6_56 <=1 
C236: x6+x57 <=1 
C237: x6+x58-y6_58 <=1 
C238: x6+x62 <=1 
C239: x7+x8 <=1 
C240: x7+x9-y7_9 <=1 
C241: x7+x11 <=1 
C242: x7+x12-y7_12 <=1 
C243: x7+x13 <=1 
C244: x7+x16-y7_16 <=1 
C245: x7+x17-y7_17 <=1 
C246: x7+x18-y7_18 <=1 
C247: x7+x19 <=1 
C248: x7+x21 <=1 
C249: x7+x22 <=1 
C250: x7+x23 <=1 
C251: x7+x25-y7_25 <=1 
C252: x7+x26 <=1 
C253: x7+x28 <=1 
C254: x7+x31 <=1 
C255: x7+x32 <=1 
C256: x7+x33 <=1 
C257: x7+x36-y7_36 <=1 
C258: x7+x37-y7_37 <=1 
C259: x7+x41 <=1 
C260: x7+x43 <=1 
C261: x7+x45-y7_45 <=1 
C262: x7+x46 <=1 
C263: x7+x49 <=1 
C264: x7+x53 <=1 
C265: x7+x54-y7_54 <=1 
C266: x7+x55-y7_55 <=1 
C267: x7+x56-y7_56 <=1 
C268: x7+x58-y7_58 <=1 
C269: x7+x61-y7_61 <=1 
C270: x7+x62-y7_62 <=1 
C271: x8+x10 <=1 
C272: x8+x11-y8_11 <=1 
C273: x8+x15-y8_15 <=1 
C274: x8+x16 <=1 
C275: x8+x17 <=1 
C276: x8+x19 <=1 
C277: x8+x21-y8_21 <=1 
C278: x8+x22 <=1 
C279: x8+x24-y8_24 <=1 
C280: x8+x26-y8_26 <=1 
C281: x8+x27 <=1 
C282: x8+x28-y8_28 <=1 
C283: x8+x29-y8_29 <=1 
C284: x8+x30 <=1 
C285: x8+x31 <=1 
C286: x8+x33 <=1 
C287: x8+x34-y8_34 <=1 
C288: x8+x36-y8_36 <=1 
C289: x8+x38-y8_38 <=1 
C290: x8+x40-y8_40 <=1 
C291: x8+x43 <=1 
C292: x8+x45-y8_45 <=1 
C293: x8+x46-y8_46 <=1 
C294: x8+x49-y8_49 <=1 
C295: x8+x53 <=1 
C296: x8+x54-y8_54 <=1 
C297: x8+x55-y8_55 <=1 
C298: x8+x56 <=1 
C299: x8+x57-y8_57 <=1 
C300: x8+x58 <=1 
C301: x8+x60-y8_60 <=1 
C302: x8+x61-y8_61 <=1 
C303: x9+x10-y9_10 <=1 
C304: x9+x12 <=1 
C305: x9+x13 <=1 
C306: x9+x14-y9_14 <=1 
C307: x9+x15-y9_15 <=1 
C308: x9+x16-y9_16 <=1 
C309: x9+x17 <=1 
C310: x9+x18-y9_18 <=1 
C311: x9+x20-y9_20 <=1 
C312: x9+x21 <=1 
C313: x9+x22-y9_22 <=1 
C314: x9+x25 <=1 
C315: x9+x26-y9_26 <=1 
C316: x9+x28 <=1 
C317: x9+x35 <=1 
C318: x9+x38-y9_38 <=1 
C319: x9+x40-y9_40 <=1 
C320: x9+x44 <=1 
C321: x9+x45-y9_45 <=1 
C322: x9+x49 <=1 
C323: x9+x50 <=1 
C324: x9+x51 <=1 
C325: x9+x52-y9_52 <=1 
C326: x9+x53 <=1 
C327: x9+x54-y9_54 <=1 
C328: x9+x55 <=1 
C329: x9+x57 <=1 
C330: x9+x59 <=1 
C331: x9+x61 <=1 
C332: x9+x62-y9_62 <=1 
C333: x10+x11-y10_11 <=1 
C334: x10+x12-y10_12 <=1 
C335: x10+x13 <=1 
C336: x10+x20 <=1 
C337: x10+x21-y10_21 <=1 
C338: x10+x23 <=1 
C339: x10+x24 <=1 
C340: x10+x27 <=1 
C341: x10+x28-y10_28 <=1 
C342: x10+x29 <=1 
C343: x10+x30-y10_30 <=1 
C344: x10+x32-y10_32 <=1 
C345: x10+x33 <=1 
C346: x10+x34-y10_34 <=1 
C347: x10+x35 <=1 
C348: x10+x38-y10_38 <=1 
C349: x10+x40-y10_40 <=1 
C350: x10+x43 <=1 
C351: x10+x44-y10_44 <=1 
C352: x10+x45-y10_45 <=1 
C353: x10+x47 <=1 
C354: x10+x48 <=1 
C355: x10+x49-y10_49 <=1 
C356: x10+x50 <=1 
C357: x10+x52-y10_52 <=1 
C358: x10+x53 <=1 
C359: x10+x55 <=1 
C360: x10+x56-y10_56 <=1 
C361: x10+x58-y10_58 <=1 
C362: x10+x59-y10_59 <=1 
C363: x10+x61-y10_61 <=1 
C364: x11+x13-y11_13 <=1 
C365: x11+x15-y11_15 <=1 
C366: x11+x16 <=1 
C367: x11+x17-y11_17 <=1 
C368: x11+x18 <=1 
C369: x11+x20-y11_20 <=1 
C370: x11+x21 <=1 
C371: x11+x22 <=1 
C372: x11+x23 <=1 
C373: x11+x25-y11_25 <=1 
C374: x11+x29 <=1 
C375: x11+x31-y11_31 <=1 
C376: x11+x33-y11_33 <=1 
C377: x11+x35-y11_35 <=1 
C378: x11+x36-y11_36 <=1 
C379: x11+x39 <=1 
C380: x11+x40 <=1 
C381: x11+x42-y11_42 <=1 
C382: x11+x43 <=1 
C383: x11+x44-y11_44 <=1 
C384: x11+x45 <=1 
C385: x11+x46-y11_46 <=1 
C386: x11+x47 <=1 
C387: x11+x48-y11_48 <=1 
C388: x11+x49 <=1 
C389: x11+x51-y11_51 <=1 
C390: x11+x58 <=1 
C391: x11+x61-y11_61 <=1 
C392: x11+x62 <=1 
C393: x12+x17-y12_17 <=1 
C394: x12+x20 <=1 
C395: x12+x21 <=1 
C396: x12+x24 <=1 
C397: x12+x26-y12_26 <=1 
C398: x12+x27-y12_27 <=1 
C399: x12+x28 <=1 
C400: x12+x29-y12_29 <=1 
C401: x12+x31-y12_31 <=1 
C402: x12+x32-y12_32 <=1 
C403: x12+x36 <=1 
C404: x12+x37-y12_37 <=1 
C405: x12+x38 <=1 
C406: x12+x39 <=1 
C407: x12+x40 <=1 
C408: x12+x42 <=1 
C409: x12+x44 <=1 
C410: x12+x46-y12_46 <=1 
C411: x12+x47-y12_47 <=1 
C412: x12+x48-y12_48 <=1 
C413: x12+x49 <=1 
C414: x12+x51 <=1 
C415: x12+x52-y12_52 <=1 
C416: x12+x53 <=1 
C417: x12+x55 <=1 
C418: x12+x58-y12_58 <=1 
C419: x12+x59 <=1 
C420: x12+x60 <=1 
C421: x12+x61-y12_61 <=1 
C422: x13+x16 <=1 
C423: x13+x17-y13_17 <=1 
C424: x13+x18-y13_18 <=1 
C425: x13+x20 <=1 
C426: x13+x22-y13_22 <=1 
C427: x13+x23 <=1 
C428: x13+x26-y13_26 <=1 
C429: x13+x31-y13_31 <=1 
C430: x13+x32-y13_32 <=1 
C431: x13+x34-y13_34 <=1 
C432: x13+x36-y13_36 <=1 
C433: x13+x38 <=1 
C434: x13+x40 <=1 
C435: x13+x42 <=1 
C436: x13+x43-y13_43 <=1 
C437: x13+x44 <=1 
C438: x13+x46 <=1 
C439: x13+x47-y13_47 <=1 
C440: x13+x48-y13_48 <=1 
C441: x13+x50 <=1 
C442: x13+x51 <=1 
C443: x13+x52 <=1 
C444: x13+x53 <=1 
C445: x13+x55-y13_55 <=1 
C446: x13+x56-y13_56 <=1 
C447: x13+x57 <=1 
C448: x13+x59-y13_59 <=1 
C449: x13+x62 <=1 
C450: x14+x15-y14_15 <=1 
C451: x14+x18 <=1 
C452: x14+x19 <=1 
C453: x14+x21-y14_21 <=1 
C454: x14+x22-y14_22 <=1 
C455: x14+x24 <=1 
C456: x14+x26 <=1 
C457: x14+x27 <=1 
C458: x14+x28-y14_28 <=1 
C459: x14+x30 <=1 
C460: x14+x32-y14_32 <=1 
C461: x14+x33 <=1 
C462: x14+x35-y14_35 <=1 
C463: x14+x37 <=1 
C464: x14+x38-y14_38 <=1 
C465: x14+x40-y14_40 <=1 
C466: x14+x41 <=1 
C467: x14+x43 <=1 
C468: x14+x44 <=1 
C469: x14+x45-y14_45 <=1 
C470: x14+x47 <=1 
C471: x14+x48-y14_48 <=1 
C472: x14+x51 <=1 
C473: x14+x52 <=1 
C474: x14+x53 <=1 
C475: x14+x55 <=1 
C476: x14+x56 <=1 
C477: x14+x57-y14_57 <=1 
C478: x14+x58 <=1 
C479: x14+x59 <=1 
C480: x14+x60-y14_60 <=1 
C481: x15+x20 <=1 
C482: x15+x21-y15_21 <=1 
C483: x15+x22 <=1 
C484: x15+x23 <=1 
C485: x15+x24-y15_24 <=1 
C486: x15+x25-y15_25 <=1 
C487: x15+x28-y15_28 <=1 
C488: x15+x32-y15_32 <=1 
C489: x15+x34 <=1 
C490: x15+x36 <=1 
C491: x15+x37-y15_37 <=1 
C492: x15+x38 <=1 
C493: x15+x39-y15_39 <=1 
C494: x15+x40-y15_40 <=1 
C495: x15+x45-y15_45 <=1 
C496: x15+x46-y15_46 <=1 
C497: x15+x47-y15_47 <=1 
C498: x15+x48-y15_48 <=1 
C499: x15+x50 <=1 
C500: x15+x51-y15_51 <=1 
C501: x15+x53 <=1 
C502: x15+x54-y15_54 <=1 
C503: x15+x55-y15_55 <=1 
C504: x15+x57-y15_57 <=1 
C505: x15+x58 <=1 
C506: x15+x59 <=1 
C507: x15+x61 <=1 
C508: x15+x62 <=1 
C509: x16+x17-y16_17 <=1 
C510: x16+x19 <=1 
C511: x16+x22-y16_22 <=1 
C512: x16+x24-y16_24 <=1 
C513: x16+x25-y16_25 <=1 
C514: x16+x27 <=1 
C515: x16+x30-y16_30 <=1 
C516: x16+x31 <=1 
C517: x16+x32-y16_32 <=1 
C518: x16+x36-y16_36 <=1 
C519: x16+x37 <=1 
C520: x16+x39-y16_39 <=1 
C521: x16+x40 <=1 
C522: x16+x41-y16_41 <=1 
C523: x16+x42 <=1 
C524: x16+x43 <=1 
C525: x16+x44-y16_44 <=1 
C526: x16+x46-y16_46 <=1 
C527: x16+x47 <=1 
C528: x16+x48 <=1 
C529: x16+x51 <=1 
C530: x16+x52 <=1 
C531: x16+x54 <=1 
C532: x16+x55-y16_55 <=1 
C533: x16+x57 <=1 
C534: x16+x59 <=1 
C535: x17+x18-y17_18 <=1 
C536: x17+x19-y17_19 <=1 
C537: x17+x20 <=1 
C538: x17+x21 <=1 
C539: x17+x24 <=1 
C540: x17+x25-y17_25 <=1 
C541: x17+x27-y17_27 <=1 
C542: x17+x29 <=1 
C543: x17+x30 <=1 
C544: x17+x33 <=1 
C545: x17+x34-y17_34 <=1 
C546: x17+x39 <=1 
C547: x17+x41-y17_41 <=1 
C548: x17+x42-y17_42 <=1 
C549: x17+x43 <=1 
C550: x17+x44 <=1 
C551: x17+x46 <=1 
C552: x17+x47-y17_47 <=1 
C553: x17+x48 <=1 
C554: x17+x54 <=1 
C555: x17+x57-y17_57 <=1 
C556: x17+x60-y17_60 <=1 
C557: x17+x62 <=1 
C558: x18+x19-y18_19 <=1 
C559: x18+x21-y18_21 <=1 
C560: x18+x22 <=1 
C561: x18+x23-y18_23 <=1 
C562: x18+x25-y18_25 <=1 
C563: x18+x26-y18_26 <=1 
C564: x18+x27 <=1 
C565: x18+x28 <=1 
C566: x18+x29-y18_29 <=1 
C567: x18+x30-y18_30 <=1 
C568: x18+x31 <=1 
C569: x18+x32 <=1 
C570: x18+x36-y18_36 <=1 
C571: x18+x37-y18_37 <=1 
C572: x18+x40 <=1 
C573: x18+x41-y18_41 <=1 
C574: x18+x42 <=1 
C575: x18+x45 <=1 
C576: x18+x47-y18_47 <=1 
C577: x18+x51-y18_51 <=1 
C578: x18+x52-y18_52 <=1 
C579: x18+x53-y18_53 <=1 
C580: x18+x54-y18_54 <=1 
C581: x18+x56 <=1 
C582: x18+x58-y18_58 <=1 
C583: x18+x62-y18_62 <=1 
C584: x19+x20-y19_20 <=1 
C585: x19+x22-y19_22 <=1 
C586: x19+x23 <=1 
C587: x19+x25-y19_25 <=1 
C588: x19+x26-y19_26 <=1 
C589: x19+x27-y19_27 <=1 
C590: x19+x31-y19_31 <=1 
C591: x19+x32 <=1 
C592: x19+x36 <=1 
C593: x19+x38 <=1 
C594: x19+x39-y19_39 <=1 
C595: x19+x41-y19_41 <=1 
C596: x19+x42 <=1 
C597: x19+x43-y19_43 <=1 
C598: x19+x44 <=1 
C599: x19+x45-y19_45 <=1 
C600: x19+x46 <=1 
C601: x19+x48-y19_48 <=1 
C602: x19+x49-y19_49 <=1 
C603: x19+x50-y19_50 <=1 
C604: x19+x52-y19_52 <=1 
C605: x19+x54 <=1 
C606: x19+x56-y19_56 <=1 
C607: x19+x57-y19_57 <=1 
C608: x19+x58 <=1 
C609: x19+x59-y19_59 <=1 
C610: x19+x60 <=1 
C611: x20+x21-y20_21 <=1 
C612: x20+x24 <=1 
C613: x20+x26-y20_26 <=1 
C614: x20+x27-y20_27 <=1 
C615: x20+x28 <=1 
C616: x20+x29-y20_29 <=1 
C617: x20+x30-y20_30 <=1 
C618: x20+x31 <=1 
C619: x20+x32 <=1 
C620: x20+x33 <=1 
C621: x20+x35 <=1 
C622: x20+x36-y20_36 <=1 
C623: x20+x37 <=1 
C624: x20+x38 <=1 
C625: x20+x40 <=1 
C626: x20+x43-y20_43 <=1 
C627: x20+x45-y20_45 <=1 
C628: x20+x46-y20_46 <=1 
C629: x20+x47 <=1 
C630: x20+x50 <=1 
C631: x20+x51-y20_51 <=1 
C632: x20+x52 <=1 
C633: x20+x56-y20_56 <=1 
C634: x20+x58 <=1 
C635: x20+x59-y20_59 <=1 
C636: x20+x60-y20_60 <=1 
C637: x20+x61 <=1 
C638: x20+x62 <=1 
C639: x21+x22 <=1 
C640: x21+x23-y21_23 <=1 
C641: x21+x24-y21_24 <=1 
C642: x21+x25-y21_25 <=1 
C643: x21+x26 <=1 
C644: x21+x28 <=1 
C645: x21+x29-y21_29 <=1 
C646: x21+x30 <=1 
C647: x21+x31 <=1 
C648: x21+x32-y21_32 <=1 
C649: x21+x33-y21_33 <=1 
C650: x21+x35 <=1 
C651: x21+x37 <=1 
C652: x21+x39 <=1 
C653: x21+x40 <=1 
C654: x21+x41-y21_41 <=1 
C655: x21+x43-y21_43 <=1 
C656: x21+x44 <=1 
C657: x21+x45-y21_45 <=1 
C658: x21+x47 <=1 
C659: x21+x49-y21_49 <=1 
C660: x21+x50 <=1 
C661: x21+x51-y21_51 <=1 
C662: x21+x53-y21_53 <=1 
C663: x21+x54-y21_54 <=1 
C664: x21+x55-y21_55 <=1 
C665: x21+x59 <=1 
C666: x21+x60-y21_60 <=1 
C667: x21+x61 <=1 
C668: x22+x23-y22_23 <=1 
C669: x22+x24 <=1 
C670: x22+x25-y22_25 <=1 
C671: x22+x26 <=1 
C672: x22+x30-y22_30 <=1 
C673: x22+x31-y22_31 <=1 
C674: x22+x32 <=1 
C675: x22+x38-y22_38 <=1 
C676: x22+x39 <=1 
C677: x22+x41-y22_41 <=1 
C678: x22+x42-y22_42 <=1 
C679: x22+x43-y22_43 <=1 
C680: x22+x44-y22_44 <=1 
C681: x22+x47-y22_47 <=1 
C682: x22+x48-y22_48 <=1 
C683: x22+x49 <=1 
C684: x22+x50-y22_50 <=1 
C685: x22+x52 <=1 
C686: x22+x59-y22_59 <=1 
C687: x22+x60-y22_60 <=1 
C688: x22+x61-y22_61 <=1 
C689: x22+x62-y22_62 <=1 
C690: x23+x25 <=1 
C691: x23+x26 <=1 
C692: x23+x27 <=1 
C693: x23+x28-y23_28 <=1 
C694: x23+x29 <=1 
C695: x23+x31-y23_31 <=1 
C696: x23+x32-y23_32 <=1 
C697: x23+x34 <=1 
C698: x23+x35 <=1 
C699: x23+x38 <=1 
C700: x23+x39-y23_39 <=1 
C701: x23+x40-y23_40 <=1 
C702: x23+x42-y23_42 <=1 
C703: x23+x43-y23_43 <=1 
C704: x23+x47-y23_47 <=1 
C705: x23+x49-y23_49 <=1 
C706: x23+x52 <=1 
C707: x23+x53 <=1 
C708: x23+x54-y23_54 <=1 
C709: x23+x55 <=1 
C710: x23+x58-y23_58 <=1 
C711: x23+x61-y23_61 <=1 
C712: x24+x27-y24_27 <=1 
C713: x24+x31 <=1 
C714: x24+x32-y24_32 <=1 
C715: x24+x34 <=1 
C716: x24+x35 <=1 
C717: x24+x36-y24_36 <=1 
C718: x24+x37-y24_37 <=1 
C719: x24+x38-y24_38 <=1 
C720: x24+x39 <=1 
C721: x24+x41-y24_41 <=1 
C722: x24+x42-y24_42 <=1 
C723: x24+x43-y24_43 <=1 
C724: x24+x46-y24_46 <=1 
C725: x24+x47-y24_47 <=1 
C726: x24+x49-y24_49 <=1 
C727: x24+x50 <=1 
C728: x24+x53-y24_53 <=1 
C729: x24+x54 <=1 
C730: x24+x55-y24_55 <=1 
C731: x24+x57 <=1 
C732: x24+x59 <=1 
C733: x24+x60-y24_60 <=1 
C734: x24+x61 <=1 
C735: x25+x26-y25_26 <=1 
C736: x25+x29 <=1 
C737: x25+x31-y25_31 <=1 
C738: x25+x32-y25_32 <=1 
C739: x25+x33 <=1 
C740: x25+x40-y25_40 <=1 
C741: x25+x42 <=1 
C742: x25+x43 <=1 
C743: x25+x44-y25_44 <=1 
C744: x25+x45 <=1 
C745: x25+x48 <=1 
C746: x25+x50-y25_50 <=1 
C747: x25+x52-y25_52 <=1 
C748: x25+x54 <=1 
C749: x25+x55-y25_55 <=1 
C750: x25+x56-y25_56 <=1 
C751: x25+x57-y25_57 <=1 
C752: x25+x58-y25_58 <=1 
C753: x25+x59-y25_59 <=1 
C754: x25+x61 <=1 
C755: x26+x32 <=1 
C756: x26+x33-y26_33 <=1 
C757: x26+x34 <=1 
C758: x26+x37 <=1 
C759: x26+x38 <=1 
C760: x26+x39 <=1 
C761: x26+x41-y26_41 <=1 
C762: x26+x42-y26_42 <=1 
C763: x26+x44-y26_44 <=1 
C764: x26+x46 <=1 
C765: x26+x47 <=1 
C766: x26+x50 <=1 
C767: x26+x51-y26_51 <=1 
C768: x26+x52 <=1 
C769: x26+x53-y26_53 <=1 
C770: x26+x54 <=1 
C771: x26+x55 <=1 
C772: x26+x57 <=1 
C773: x26+x58 <=1 
C774: x26+x59 <=1 
C775: x26+x60 <=1 
C776: x26+x61-y26_61 <=1 
C777: x26+x62-y26_62 <=1 
C778: x27+x29-y27_29 <=1 
C779: x27+x30-y27_30 <=1 
C780: x27+x34 <=1 
C781: x27+x35 <=1 
C782: x27+x39-y27_39 <=1 
C783: x27+x40-y27_40 <=1 
C784: x27+x41-y27_41 <=1 
C785: x27+x43-y27_43 <=1 
C786: x27+x44-y27_44 <=1 
C787: x27+x45-y27_45 <=1 
C788: x27+x46-y27_46 <=1 
C789: x27+x47-y27_47 <=1 
C790: x27+x48-y27_48 <=1 
C791: x27+x49 <=1 
C792: x27+x51-y27_51 <=1 
C793: x27+x52-y27_52 <=1 
C794: x27+x54 <=1 
C795: x27+x55 <=1 
C796: x27+x61-y27_61 <=1 
C797: x27+x62-y27_62 <=1 
C798: x28+x30 <=1 
C799: x28+x33-y28_33 <=1 
C800: x28+x34 <=1 
C801: x28+x35 <=1 
C802: x28+x36-y28_36 <=1 
C803: x28+x38-y28_38 <=1 
C804: x28+x39-y28_39 <=1 
C805: x28+x40 <=1 
C806: x28+x41 <=1 
C807: x28+x43-y28_43 <=1 
C808: x28+x44-y28_44 <=1 
C809: x28+x45-y28_45 <=1 
C810: x28+x47-y28_47 <=1 
C811: x28+x50-y28_50 <=1 
C812: x28+x52-y28_52 <=1 
C813: x28+x53 <=1 
C814: x28+x54-y28_54 <=1 
C815: x28+x56 <=1 
C816: x28+x57-y28_57 <=1 
C817: x28+x58-y28_58 <=1 
C818: x28+x62-y28_62 <=1 
C819: x29+x32 <=1 
C820: x29+x34 <=1 
C821: x29+x36-y29_36 <=1 
C822: x29+x38 <=1 
C823: x29+x39 <=1 
C824: x29+x41-y29_41 <=1 
C825: x29+x43-y29_43 <=1 
C826: x29+x44-y29_44 <=1 
C827: x29+x45-y29_45 <=1 
C828: x29+x46 <=1 
C829: x29+x48-y29_48 <=1 
C830: x29+x49-y29_49 <=1 
C831: x29+x50 <=1 
C832: x29+x52-y29_52 <=1 
C833: x29+x54 <=1 
C834: x29+x55 <=1 
C835: x29+x56 <=1 
C836: x29+x59-y29_59 <=1 
C837: x29+x61 <=1 
C838: x30+x31-y30_31 <=1 
C839: x30+x34 <=1 
C840: x30+x35 <=1 
C841: x30+x39 <=1 
C842: x30+x40-y30_40 <=1 
C843: x30+x42 <=1 
C844: x30+x43 <=1 
C845: x30+x44 <=1 
C846: x30+x45 <=1 
C847: x30+x48 <=1 
C848: x30+x49 <=1 
C849: x30+x50-y30_50 <=1 
C850: x30+x51 <=1 
C851: x30+x52 <=1 
C852: x30+x53 <=1 
C853: x30+x54 <=1 
C854: x30+x55-y30_55 <=1 
C855: x30+x58 <=1 
C856: x30+x62 <=1 
C857: x31+x32 <=1 
C858: x31+x33 <=1 
C859: x31+x35-y31_35 <=1 
C860: x31+x36-y31_36 <=1 
C861: x31+x38-y31_38 <=1 
C862: x31+x40 <=1 
C863: x31+x41 <=1 
C864: x31+x45-y31_45 <=1 
C865: x31+x47-y31_47 <=1 
C866: x31+x48 <=1 
C867: x31+x51-y31_51 <=1 
C868: x31+x54-y31_54 <=1 
C869: x31+x60 <=1 
C870: x31+x61-y31_61 <=1 
C871: x32+x34-y32_34 <=1 
C872: x32+x35 <=1 
C873: x32+x36-y32_36 <=1 
C874: x32+x37 <=1 
C875: x32+x39 <=1 
C876: x32+x41 <=1 
C877: x32+x43-y32_43 <=1 
C878: x32+x45 <=1 
C879: x32+x47 <=1 
C880: x32+x49-y32_49 <=1 
C881: x32+x51 <=1 
C882: x32+x54-y32_54 <=1 
C883: x32+x55 <=1 
C884: x32+x56 <=1 
C885: x32+x57 <=1 
C886: x32+x58-y32_58 <=1 
C887: x32+x59-y32_59 <=1 
C888: x32+x61-y32_61 <=1 
C889: x32+x62 <=1 
C890: x33+x36 <=1 
C891: x33+x37-y33_37 <=1 
C892: x33+x38 <=1 
C893: x33+x39-y33_39 <=1 
C894: x33+x41 <=1 
C895: x33+x44-y33_44 <=1 
C896: x33+x45 <=1 
C897: x33+x46-y33_46 <=1 
C898: x33+x50 <=1 
C899: x33+x51-y33_51 <=1 
C900: x33+x53 <=1 
C901: x33+x55-y33_55 <=1 
C902: x33+x56 <=1 
C903: x33+x58 <=1 
C904: x33+x59-y33_59 <=1 
C905: x33+x60 <=1 
C906: x33+x61-y33_61 <=1 
C907: x33+x62 <=1 
C908: x34+x35 <=1 
C909: x34+x38-y34_38 <=1 
C910: x34+x40-y34_40 <=1 
C911: x34+x46 <=1 
C912: x34+x47 <=1 
C913: x34+x48 <=1 
C914: x34+x49 <=1 
C915: x34+x51 <=1 
C916: x34+x52 <=1 
C917: x34+x53-y34_53 <=1 
C918: x34+x54-y34_54 <=1 
C919: x34+x56-y34_56 <=1 
C920: x34+x58 <=1 
C921: x34+x59 <=1 
C922: x34+x60 <=1 
C923: x34+x62 <=1 
C924: x35+x37 <=1 
C925: x35+x38 <=1 
C926: x35+x39-y35_39 <=1 
C927: x35+x41 <=1 
C928: x35+x42-y35_42 <=1 
C929: x35+x45-y35_45 <=1 
C930: x35+x46 <=1 
C931: x35+x47-y35_47 <=1 
C932: x35+x48 <=1 
C933: x35+x50 <=1 
C934: x35+x55 <=1 
C935: x35+x57 <=1 
C936: x35+x58 <=1 
C937: x35+x59 <=1 
C938: x35+x61 <=1 
C939: x35+x62 <=1 
C940: x36+x37 <=1 
C941: x36+x40 <=1 
C942: x36+x41-y36_41 <=1 
C943: x36+x42-y36_42 <=1 
C944: x36+x43 <=1 
C945: x36+x45-y36_45 <=1 
C946: x36+x47-y36_47 <=1 
C947: x36+x49 <=1 
C948: x36+x51-y36_51 <=1 
C949: x36+x53-y36_53 <=1 
C950: x36+x55-y36_55 <=1 
C951: x36+x56 <=1 
C952: x36+x58 <=1 
C953: x36+x59 <=1 
C954: x36+x60 <=1 
C955: x36+x61-y36_61 <=1 
C956: x36+x62 <=1 
C957: x37+x38 <=1 
C958: x37+x40-y37_40 <=1 
C959: x37+x43 <=1 
C960: x37+x44 <=1 
C961: x37+x45-y37_45 <=1 
C962: x37+x48 <=1 
C963: x37+x49 <=1 
C964: x37+x51 <=1 
C965: x37+x53 <=1 
C966: x37+x58 <=1 
C967: x37+x59-y37_59 <=1 
C968: x37+x60-y37_60 <=1 
C969: x37+x61 <=1 
C970: x38+x39 <=1 
C971: x38+x40 <=1 
C972: x38+x41-y38_41 <=1 
C973: x38+x42-y38_42 <=1 
C974: x38+x43-y38_43 <=1 
C975: x38+x46-y38_46 <=1 
C976: x38+x47 <=1 
C977: x38+x48 <=1 
C978: x38+x49-y38_49 <=1 
C979: x38+x51-y38_51 <=1 
C980: x38+x52 <=1 
C981: x38+x53-y38_53 <=1 
C982: x38+x55 <=1 
C983: x38+x57 <=1 
C984: x38+x58-y38_58 <=1 
C985: x38+x59-y38_59 <=1 
C986: x38+x60-y38_60 <=1 
C987: x38+x61-y38_61 <=1 
C988: x38+x62-y38_62 <=1 
C989: x39+x40-y39_40 <=1 
C990: x39+x43-y39_43 <=1 
C991: x39+x46 <=1 
C992: x39+x48 <=1 
C993: x39+x49 <=1 
C994: x39+x51 <=1 
C995: x39+x52-y39_52 <=1 
C996: x39+x53 <=1 
C997: x39+x55 <=1 
C998: x39+x56-y39_56 <=1 
C999: x39+x57 <=1 
C1000: x39+x59-y39_59 <=1 
C1001: x39+x61 <=1 
C1002: x39+x62-y39_62 <=1 
C1003: x40+x41-y40_41 <=1 
C1004: x40+x42 <=1 
C1005: x40+x44-y40_44 <=1 
C1006: x40+x45 <=1 
C1007: x40+x46-y40_46 <=1 
C1008: x40+x48-y40_48 <=1 
C1009: x40+x49-y40_49 <=1 
C1010: x40+x50-y40_50 <=1 
C1011: x40+x53-y40_53 <=1 
C1012: x40+x56 <=1 
C1013: x40+x57-y40_57 <=1 
C1014: x40+x59-y40_59 <=1 
C1015: x40+x61-y40_61 <=1 
C1016: x40+x62-y40_62 <=1 
C1017: x41+x42-y41_42 <=1 
C1018: x41+x43 <=1 
C1019: x41+x44 <=1 
C1020: x41+x46 <=1 
C1021: x41+x47 <=1 
C1022: x41+x50-y41_50 <=1 
C1023: x41+x51-y41_51 <=1 
C1024: x41+x52-y41_52 <=1 
C1025: x41+x53 <=1 
C1026: x41+x54 <=1 
C1027: x41+x55-y41_55 <=1 
C1028: x41+x57 <=1 
C1029: x41+x58 <=1 
C1030: x41+x59-y41_59 <=1 
C1031: x41+x60-y41_60 <=1 
C1032: x41+x62 <=1 
C1033: x42+x46-y42_46 <=1 
C1034: x42+x47 <=1 
C1035: x42+x48 <=1 
C1036: x42+x49-y42_49 <=1 
C1037: x42+x50 <=1 
C1038: x42+x54 <=1 
C1039: x42+x57 <=1 
C1040: x42+x59-y42_59 <=1 
C1041: x42+x60 <=1 
C1042: x42+x62-y42_62 <=1 
C1043: x43+x45 <=1 
C1044: x43+x46-y43_46 <=1 
C1045: x43+x47-y43_47 <=1 
C1046: x43+x48 <=1 
C1047: x43+x49-y43_49 <=1 
C1048: x43+x50 <=1 
C1049: x43+x53 <=1 
C1050: x43+x57 <=1 
C1051: x43+x59-y43_59 <=1 
C1052: x43+x61 <=1 
C1053: x44+x45-y44_45 <=1 
C1054: x44+x46 <=1 
C1055: x44+x47-y44_47 <=1 
C1056: x44+x48-y44_48 <=1 
C1057: x44+x49 <=1 
C1058: x44+x50-y44_50 <=1 
C1059: x44+x51-y44_51 <=1 
C1060: x44+x53 <=1 
C1061: x44+x54 <=1 
C1062: x44+x55 <=1 
C1063: x44+x56-y44_56 <=1 
C1064: x44+x57 <=1 
C1065: x44+x58-y44_58 <=1 
C1066: x44+x60 <=1 
C1067: x44+x62 <=1 
C1068: x45+x46 <=1 
C1069: x45+x50-y45_50 <=1 
C1070: x45+x54 <=1 
C1071: x45+x58-y45_58 <=1 
C1072: x45+x59 <=1 
C1073: x45+x60 <=1 
C1074: x45+x62-y45_62 <=1 
C1075: x46+x47-y46_47 <=1 
C1076: x46+x49-y46_49 <=1 
C1077: x46+x50 <=1 
C1078: x46+x51-y46_51 <=1 
C1079: x46+x52-y46_52 <=1 
C1080: x46+x55 <=1 
C1081: x46+x58 <=1 
C1082: x46+x59 <=1 
C1083: x46+x60 <=1 
C1084: x47+x48-y47_48 <=1 
C1085: x47+x50-y47_50 <=1 
C1086: x47+x51 <=1 
C1087: x47+x53 <=1 
C1088: x47+x55-y47_55 <=1 
C1089: x47+x57 <=1 
C1090: x47+x58 <=1 
C1091: x47+x59-y47_59 <=1 
C1092: x47+x62 <=1 
C1093: x48+x50 <=1 
C1094: x48+x52-y48_52 <=1 
C1095: x48+x53-y48_53 <=1 
C1096: x48+x54 <=1 
C1097: x48+x55-y48_55 <=1 
C1098: x48+x56-y48_56 <=1 
C1099: x48+x57-y48_57 <=1 
C1100: x48+x58-y48_58 <=1 
C1101: x48+x60-y48_60 <=1 
C1102: x48+x62 <=1 
C1103: x49+x51 <=1 
C1104: x49+x53 <=1 
C1105: x49+x56 <=1 
C1106: x49+x58-y49_58 <=1 
C1107: x49+x60-y49_60 <=1 
C1108: x49+x62 <=1 
C1109: x50+x51-y50_51 <=1 
C1110: x50+x54 <=1 
C1111: x50+x56 <=1 
C1112: x50+x58-y50_58 <=1 
C1113: x50+x59-y50_59 <=1 
C1114: x50+x60 <=1 
C1115: x51+x52 <=1 
C1116: x51+x53 <=1 
C1117: x51+x55-y51_55 <=1 
C1118: x51+x56-y51_56 <=1 
C1119: x51+x57-y51_57 <=1 
C1120: x51+x58 <=1 
C1121: x51+x59 <=1 
C1122: x51+x61 <=1 
C1123: x52+x55 <=1 
C1124: x52+x57-y52_57 <=1 
C1125: x52+x58-y52_58 <=1 
C1126: x52+x59-y52_59 <=1 
C1127: x52+x61 <=1 
C1128: x52+x62-y52_62 <=1 
C1129: x53+x54 <=1 
C1130: x53+x55 <=1 
C1131: x53+x56-y53_56 <=1 
C1132: x53+x57 <=1 
C1133: x53+x58-y53_58 <=1 
C1134: x53+x60 <=1 
C1135: x54+x56-y54_56 <=1 
C1136: x54+x57 <=1 
C1137: x54+x58 <=1 
C1138: x54+x61 <=1 
C1139: x54+x62-y54_62 <=1 
C1140: x55+x57 <=1 
C1141: x55+x60 <=1 
C1142: x55+x61 <=1 
C1143: x56+x58 <=1 
C1144: x56+x59-y56_59 <=1 
C1145: x56+x61 <=1 
C1146: x57+x58-y57_58 <=1 
C1147: x57+x59 <=1 
C1148: x57+x60 <=1 
C1149: x57+x62-y57_62 <=1 
C1150: x58+x60-y58_60 <=1 
C1151: x60+x61 <=1 
C1152: x60+x62-y60_62 <=1 

binary
x0
x1
x2
x3
x4
x5
x6
x7
x8
x9
x10
x11
x12
x13
x14
x15
x16
x17
x18
x19
x20
x21
x22
x23
x24
x25
x26
x27
x28
x29
x30
x31
x32
x33
x34
x35
x36
x37
x38
x39
x40
x41
x42
x43
x44
x45
x46
x47
x48
x49
x50
x51
x52
x53
x54
x55
x56
x57
x58
x59
x60
x61
x62
