problem_generation/data/GISP/train/er_n=63_m=1152_p=0.60_SET2_setparam=100.00_alpha=0.50_403.sol
objective value:                                 1178
x1                                                  1 	(obj:100)
x11                                                 1 	(obj:100)
x13                                                 1 	(obj:100)
x15                                                 1 	(obj:100)
x24                                                 1 	(obj:100)
x25                                                 1 	(obj:100)
x27                                                 1 	(obj:100)
x30                                                 1 	(obj:100)
x37                                                 1 	(obj:100)
x41                                                 1 	(obj:100)
x56                                                 1 	(obj:100)
x60                                                 1 	(obj:100)
y15_25                                              1 	(obj:-1)
y24_60                                              1 	(obj:-1)
y24_41                                              1 	(obj:-1)
y24_27                                              1 	(obj:-1)
y27_41                                              1 	(obj:-1)
y1_15                                               1 	(obj:-1)
y1_24                                               1 	(obj:-1)
y41_60                                              1 	(obj:-1)
y25_56                                              1 	(obj:-1)
y27_30                                              1 	(obj:-1)
y11_13                                              1 	(obj:-1)
y1_13                                               1 	(obj:-1)
y15_24                                              1 	(obj:-1)
y15_37                                              1 	(obj:-1)
y1_60                                               1 	(obj:-1)
y1_41                                               1 	(obj:-1)
y13_56                                              1 	(obj:-1)
y24_37                                              1 	(obj:-1)
y37_60                                              1 	(obj:-1)
y11_25                                              1 	(obj:-1)
y1_11                                               1 	(obj:-1)
y11_15                                              1 	(obj:-1)
